10
461 840 470  477
421 977 653  775
838 686 952  982
414 509 952  295
577 995 534  672
531 782 549  924
559 467 965  192
892 462 510  479
762 672 444  493
580 439 564  668
15
480 88 217  87 190
280 73 476  55 91
368 687 638  80 6
76 320 290  132 14
346 562 11  158 21
102 61 777  178 274
390 185 575  54 116
510 645 690  281 44
164 604 706  29 76
698 172 316  271 103
388 610 9  293 182
94 558 790  183 34
4 524 213  109 178
667 787 8  98 221
617 443 334  165 222
